clingo version 5.4.0
Reading from ...project_source/more_experimentation.lp
Solving...
Answer: 1
boundary(0,0,100,0) boundary(100,0,100,100) boundary(100,100,0,100) boundary(0,100,0,0) road(50,0,50,100) road(0,30,50,30) road(50,70,100,70)
SATISFIABLE

Models       : 1
Calls        : 1
Time         : 0.006s (Solving: 0.00s 1st Model: 0.00s Unsat: 0.00s)
CPU Time     : 0.001s
